c Circuit-CNF generated by TG-PRO v1.0 (c) Huan Chen and Joao Marques-Silva
p cnf 506 1102
1 2 0
-1 -2 0
3 4 0
-3 -4 0
5 6 0
-5 -6 0
7 8 0
-7 -8 0
-9 10 0
-9 11 0
9 -10 -11 0
-12 13 0
-12 14 0
12 -13 -14 0
-15 16 0
-15 17 0
15 -16 -17 0
-18 19 0
-18 20 0
18 -19 -20 0
21 22 0
-21 -22 0
23 24 0
-23 -24 0
25 26 0
-25 -26 0
27 28 0
-27 -28 0
-29 30 0
-29 31 0
29 -30 -31 0
32 33 0
-32 -33 0
-34 35 0
-34 36 0
34 -35 -36 0
37 38 0
-37 -38 0
39 40 0
-39 -40 0
41 42 0
-41 -42 0
43 44 0
-43 -44 0
45 46 0
-45 -46 0
47 48 0
-47 -48 0
49 50 0
-49 -50 0
51 52 0
-51 -52 0
53 54 0
-53 -54 0
-55 56 0
-55 57 0
55 -56 -57 0
58 59 0
-58 -59 0
-60 61 0
-60 62 0
60 -61 -62 0
63 64 0
63 65 0
-63 -64 -65 0
66 67 0
66 68 0
-66 -67 -68 0
69 70 0
69 71 0
-69 -70 -71 0
72 73 0
72 74 0
-72 -73 -74 0
75 76 0
75 77 0
-75 -76 -77 0
78 79 0
78 80 0
-78 -79 -80 0
81 82 0
81 83 0
-81 -82 -83 0
84 85 0
-84 -85 0
86 87 0
-86 -87 0
88 89 0
-88 -89 0
90 91 0
-90 -91 0
92 93 0
-92 -93 0
94 95 0
-94 -95 0
96 97 0
-96 -97 0
98 99 0
-98 -99 0
100 101 0
-100 -101 0
61 102 0
-61 -102 0
103 104 0
-103 -104 0
105 106 0
-105 -106 0
107 108 0
-107 -108 0
109 110 0
-109 -110 0
111 112 0
-111 -112 0
113 114 0
-113 -114 0
115 116 0
-115 -116 0
117 118 0
-117 -118 0
119 120 0
-119 -120 0
121 122 0
-121 -122 0
33 123 0
-33 -123 0
38 124 0
-38 -124 0
125 126 0
-125 -126 0
127 125 0
-127 -125 0
128 129 0
-128 -129 0
130 128 0
-130 -128 0
131 132 0
-131 -132 0
133 131 0
-133 -131 0
134 135 0
-134 -135 0
136 134 0
-136 -134 0
137 138 0
-137 -138 0
139 137 0
-139 -137 0
140 141 0
-140 -141 0
142 140 0
-142 -140 0
143 144 0
-143 -144 0
145 143 0
-145 -143 0
146 147 0
-146 -147 0
148 146 0
-148 -146 0
149 150 0
-149 -150 0
151 149 0
-151 -149 0
152 153 0
-152 -153 0
154 152 0
-154 -152 0
155 156 0
-155 -156 0
157 155 0
-157 -155 0
158 159 0
-158 -159 0
160 158 0
-160 -158 0
161 162 0
-161 -162 0
163 161 0
-163 -161 0
164 165 0
-164 -165 0
166 164 0
-166 -164 0
167 168 0
-167 -168 0
169 167 0
-169 -167 0
170 100 0
-170 -100 0
171 105 0
-171 -105 0
172 107 0
-172 -107 0
173 109 0
-173 -109 0
174 111 0
-174 -111 0
175 113 0
-175 -113 0
176 115 0
-176 -115 0
177 117 0
-177 -117 0
178 119 0
-178 -119 0
179 121 0
-179 -121 0
180 171 0
-180 -171 0
181 171 0
-181 -171 0
182 171 0
-182 -171 0
183 171 0
-183 -171 0
184 171 0
-184 -171 0
185 171 0
-185 -171 0
186 171 0
-186 -171 0
187 175 0
-187 -175 0
188 176 0
-188 -176 0
189 177 0
-189 -177 0
190 178 0
-190 -178 0
191 179 0
-191 -179 0
-192 193 0
-192 179 0
192 -193 -179 0
194 192 0
-194 -192 0
-195 180 0
-195 160 0
195 -180 -160 0
196 195 0
-196 -195 0
197 196 0
-197 -196 0
198 195 0
-198 -195 0
199 198 0
-199 -198 0
-200 181 0
-200 130 0
200 -181 -130 0
201 200 0
-201 -200 0
202 201 0
-202 -201 0
203 200 0
-203 -200 0
204 203 0
-204 -203 0
-205 182 0
-205 139 0
205 -182 -139 0
206 205 0
-206 -205 0
207 206 0
-207 -206 0
208 205 0
-208 -205 0
209 208 0
-209 -208 0
-210 183 0
-210 169 0
210 -183 -169 0
211 210 0
-211 -210 0
10 211 0
-10 -211 0
-212 184 0
-212 136 0
212 -184 -136 0
213 212 0
-213 -212 0
13 213 0
-13 -213 0
-214 185 0
-214 142 0
214 -185 -142 0
215 214 0
-215 -214 0
16 215 0
-16 -215 0
-216 186 0
-216 148 0
216 -186 -148 0
217 216 0
-217 -216 0
19 217 0
-19 -217 0
218 194 0
-218 -194 0
219 197 0
-219 -197 0
220 219 0
-220 -219 0
221 202 0
-221 -202 0
222 221 0
-222 -221 0
223 207 0
-223 -207 0
224 223 0
-224 -223 0
225 218 0
-225 -218 0
35 225 0
-35 -225 0
226 -227 0
226 -228 0
-226 227 228 0
229 226 0
-229 -226 0
230 -231 0
230 -232 0
-230 231 232 0
233 230 0
-233 -230 0
234 220 0
-234 -220 0
-50 199 0
-50 235 0
50 -199 -235 0
236 222 0
-236 -222 0
-46 204 0
-46 237 0
46 -204 -237 0
238 224 0
-238 -224 0
-42 209 0
-42 239 0
42 -209 -239 0
240 229 0
-240 -229 0
241 233 0
-241 -233 0
242 243 0
242 240 0
-242 -243 -240 0
244 242 0
-244 -242 0
245 244 0
-245 -244 0
246 247 0
246 241 0
-246 -247 -241 0
248 246 0
-248 -246 0
249 248 0
-249 -248 0
-24 245 0
-24 250 0
24 -245 -250 0
251 24 0
-251 -24 0
-28 249 0
-28 252 0
28 -249 -252 0
253 28 0
-253 -28 0
254 251 0
-254 -251 0
255 253 0
-255 -253 0
256 254 0
-256 -254 0
257 256 0
-257 -256 0
258 255 0
-258 -255 0
259 258 0
-259 -258 0
260 257 0
-260 -257 0
261 260 0
-261 -260 0
262 259 0
-262 -259 0
263 261 0
-263 -261 0
264 262 0
-264 -262 0
265 263 0
-265 -263 0
-266 264 0
-266 154 0
266 -264 -154 0
267 266 0
-267 -266 0
268 267 0
-268 -267 0
269 266 0
-269 -266 0
270 269 0
-270 -269 0
-271 272 0
-271 166 0
271 -272 -166 0
273 271 0
-273 -271 0
274 273 0
-274 -273 0
275 271 0
-275 -271 0
276 275 0
-276 -275 0
-277 265 0
-277 133 0
277 -265 -133 0
278 277 0
-278 -277 0
279 278 0
-279 -278 0
280 277 0
-280 -277 0
281 280 0
-281 -280 0
-282 283 0
-282 157 0
282 -283 -157 0
284 282 0
-284 -282 0
285 284 0
-285 -284 0
286 282 0
-286 -282 0
287 286 0
-287 -286 0
288 268 0
-288 -268 0
289 288 0
-289 -288 0
290 274 0
-290 -274 0
62 290 0
-62 -290 0
291 279 0
-291 -279 0
292 291 0
-292 -291 0
293 285 0
-293 -285 0
294 293 0
-294 -293 0
295 289 0
-295 -289 0
-52 270 0
-52 296 0
52 -270 -296 0
57 62 0
-57 -62 0
-8 276 0
-8 297 0
8 -276 -297 0
298 292 0
-298 -292 0
-44 281 0
-44 299 0
44 -281 -299 0
300 294 0
-300 -294 0
-4 287 0
-4 301 0
4 -287 -301 0
302 295 0
-302 -295 0
-303 61 0
-303 62 0
303 -61 -62 0
99 303 0
-99 -303 0
304 302 0
-304 -302 0
305 -306 0
305 -307 0
-305 306 307 0
308 305 0
-308 -305 0
309 -310 0
309 -311 0
-309 310 311 0
312 309 0
-312 -309 0
313 -314 0
313 -315 0
-313 314 315 0
316 313 0
-316 -313 0
317 -304 0
317 -318 0
-317 304 318 0
319 317 0
-319 -317 0
320 308 0
-320 -308 0
77 312 0
-77 -312 0
74 316 0
-74 -316 0
65 319 0
-65 -319 0
321 322 0
321 320 0
-321 -322 -320 0
323 321 0
-323 -321 0
324 323 0
-324 -323 0
-26 324 0
-26 325 0
26 -324 -325 0
326 26 0
-326 -26 0
327 326 0
-327 -326 0
328 327 0
-328 -327 0
329 328 0
-329 -328 0
330 329 0
-330 -329 0
331 330 0
-331 -330 0
332 331 0
-332 -331 0
333 332 0
-333 -332 0
-334 333 0
-334 127 0
334 -333 -127 0
335 334 0
-335 -334 0
336 335 0
-336 -335 0
337 334 0
-337 -334 0
338 337 0
-338 -337 0
-339 340 0
-339 163 0
339 -340 -163 0
341 339 0
-341 -339 0
342 341 0
-342 -341 0
343 339 0
-343 -339 0
344 343 0
-344 -343 0
345 336 0
-345 -336 0
346 345 0
-346 -345 0
59 342 0
-59 -342 0
347 346 0
-347 -346 0
-48 338 0
-48 348 0
48 -338 -348 0
349 342 0
-349 -342 0
-6 344 0
-6 350 0
6 -344 -350 0
-351 352 0
-351 57 0
351 -352 -57 0
97 351 0
-97 -351 0
-353 354 0
-353 57 0
353 -354 -57 0
95 353 0
-95 -353 0
355 -356 0
355 -357 0
-355 356 357 0
358 355 0
-358 -355 0
359 -360 0
359 -361 0
-359 360 361 0
362 359 0
-362 -359 0
363 -364 0
363 -365 0
-363 364 365 0
366 363 0
-366 -363 0
71 358 0
-71 -358 0
68 362 0
-68 -362 0
367 366 0
-367 -366 0
368 369 0
368 367 0
-368 -369 -367 0
370 368 0
-370 -368 0
371 370 0
-371 -370 0
-22 371 0
-22 372 0
22 -371 -372 0
373 22 0
-373 -22 0
374 373 0
-374 -373 0
375 374 0
-375 -374 0
376 375 0
-376 -375 0
377 376 0
-377 -376 0
378 377 0
-378 -377 0
379 378 0
-379 -378 0
380 379 0
-380 -379 0
-381 380 0
-381 145 0
381 -380 -145 0
382 381 0
-382 -381 0
383 382 0
-383 -382 0
384 381 0
-384 -381 0
385 384 0
-385 -384 0
-386 387 0
-386 151 0
386 -387 -151 0
388 386 0
-388 -386 0
389 388 0
-389 -388 0
390 386 0
-390 -386 0
391 390 0
-391 -390 0
392 383 0
-392 -383 0
393 392 0
-393 -392 0
54 389 0
-54 -389 0
394 393 0
-394 -393 0
-40 385 0
-40 395 0
40 -385 -395 0
396 389 0
-396 -389 0
-2 391 0
-2 397 0
2 -391 -397 0
398 -399 0
398 -400 0
-398 399 400 0
85 398 0
-85 -398 0
-401 402 0
-401 403 0
401 -402 -403 0
93 401 0
-93 -401 0
404 -405 0
404 -406 0
-404 405 406 0
407 404 0
-407 -404 0
408 -409 0
408 -410 0
-408 409 410 0
411 408 0
-411 -408 0
412 -413 0
412 -414 0
-412 413 414 0
415 412 0
-415 -412 0
83 407 0
-83 -407 0
80 411 0
-80 -411 0
416 -417 0
416 -418 0
-416 417 418 0
87 416 0
-87 -416 0
419 -420 0
419 -421 0
-419 420 421 0
89 419 0
-89 -419 0
422 -423 0
422 -424 0
-422 423 424 0
91 422 0
-91 -422 0
425 415 0
-425 -415 0
426 427 0
426 425 0
-426 -427 -425 0
428 426 0
-428 -426 0
30 428 0
-30 -428 0
-429 103 0
-429 189 0
429 -103 -189 0
-430 103 0
-430 189 0
430 -103 -189 0
-431 103 0
-431 189 0
431 -103 -189 0
-432 103 0
-432 189 0
432 -103 -189 0
-433 434 0
-433 191 0
433 -434 -191 0
-435 436 0
-435 191 0
435 -436 -191 0
-307 437 0
-307 191 0
307 -437 -191 0
-232 438 0
-232 191 0
232 -438 -191 0
272 103 0
272 262 0
-272 -103 -262 0
283 103 0
283 263 0
-283 -103 -263 0
-318 262 0
-318 289 0
318 -262 -289 0
-439 440 0
-439 191 0
439 -440 -191 0
-441 61 0
-441 62 0
441 -61 -62 0
-442 170 0
-442 62 0
442 -170 -62 0
-311 443 0
-311 222 0
311 -443 -222 0
-444 445 0
-444 292 0
444 -445 -292 0
-446 61 0
-446 294 0
446 -61 -294 0
-447 294 0
-447 172 0
447 -294 -172 0
-448 449 0
-448 57 0
448 -449 -57 0
-450 451 0
-450 444 0
450 -451 -444 0
-314 298 0
-314 236 0
314 -298 -236 0
-310 298 0
-310 222 0
310 -298 -222 0
-315 452 0
-315 222 0
315 -452 -222 0
-453 454 0
-453 300 0
453 -454 -300 0
340 103 0
340 332 0
-340 -103 -332 0
-357 455 0
-357 220 0
357 -455 -220 0
-456 457 0
-456 346 0
456 -457 -346 0
-458 459 0
-458 189 0
458 -459 -189 0
-460 61 0
-460 342 0
460 -61 -342 0
-461 342 0
-461 173 0
461 -342 -173 0
-462 463 0
-462 456 0
462 -463 -456 0
-360 347 0
-360 234 0
360 -347 -234 0
-356 347 0
-356 220 0
356 -347 -220 0
-361 464 0
-361 220 0
361 -464 -220 0
-465 466 0
-465 57 0
465 -466 -57 0
-365 467 0
-365 453 0
365 -467 -453 0
387 103 0
387 379 0
-387 -103 -379 0
-468 469 0
-468 393 0
468 -469 -393 0
-406 470 0
-406 224 0
406 -470 -224 0
-400 471 0
-400 465 0
400 -471 -465 0
-472 473 0
-472 222 0
472 -473 -222 0
-474 61 0
-474 389 0
474 -61 -389 0
-475 389 0
-475 174 0
475 -389 -174 0
-403 476 0
-403 300 0
403 -476 -300 0
-477 478 0
-477 468 0
477 -478 -468 0
-479 472 0
-479 458 0
479 -472 -458 0
-409 394 0
-409 238 0
409 -394 -238 0
-405 394 0
-405 224 0
405 -394 -224 0
-410 480 0
-410 224 0
410 -480 -224 0
-481 482 0
-481 57 0
481 -482 -57 0
-483 484 0
-483 57 0
483 -484 -57 0
-485 486 0
-485 300 0
485 -486 -300 0
-418 487 0
-418 481 0
418 -487 -481 0
-421 488 0
-421 483 0
421 -488 -483 0
-424 489 0
-424 485 0
424 -489 -485 0
414 -490 0
414 -462 0
-414 490 462 0
243 226 0
243 229 0
-243 -226 -229 0
247 230 0
247 233 0
-247 -230 -233 0
322 305 0
322 308 0
-322 -305 -308 0
76 309 0
76 312 0
-76 -309 -312 0
73 313 0
73 316 0
-73 -313 -316 0
64 317 0
64 319 0
-64 -317 -319 0
70 355 0
70 358 0
-70 -355 -358 0
67 359 0
67 362 0
-67 -359 -362 0
369 363 0
369 366 0
-369 -363 -366 0
82 404 0
82 407 0
-82 -404 -407 0
79 408 0
79 411 0
-79 -408 -411 0
427 412 0
427 415 0
-427 -412 -415 0
-491 61 0
-491 294 0
491 -61 -294 0
-56 491 0
-56 349 0
56 -491 -349 0
-193 177 0
-193 178 0
193 -177 -178 0
227 -430 0
227 -435 0
-227 430 435 0
231 -432 0
231 -492 0
-231 432 492 0
306 -431 0
306 -448 0
-306 431 448 0
-352 61 0
-352 342 0
352 -61 -342 0
-493 61 0
-493 294 0
493 -61 -294 0
-354 493 0
-354 349 0
354 -493 -349 0
364 -429 0
364 -433 0
-364 429 433 0
399 -474 0
399 -475 0
-399 474 475 0
-402 349 0
-402 57 0
402 -349 -57 0
494 -450 0
494 -439 0
-494 450 439 0
413 -494 0
413 -479 0
-413 494 479 0
417 -446 0
417 -447 0
-417 446 447 0
420 -460 0
420 -461 0
-420 460 461 0
423 -441 0
423 -442 0
-423 441 442 0
-495 103 0
-495 187 0
495 -103 -187 0
-434 495 0
-434 188 0
434 -495 -188 0
-496 103 0
-496 187 0
496 -103 -187 0
-436 496 0
-436 176 0
436 -496 -176 0
-497 103 0
-497 175 0
497 -103 -175 0
-437 497 0
-437 188 0
437 -497 -188 0
-498 103 0
-498 175 0
498 -103 -175 0
-438 498 0
-438 176 0
438 -498 -176 0
-499 175 0
-499 176 0
499 -175 -176 0
-440 499 0
-440 289 0
440 -499 -289 0
-443 263 0
-443 292 0
443 -263 -292 0
-445 187 0
-445 176 0
445 -187 -176 0
-449 61 0
-449 500 0
449 -61 -500 0
-451 222 0
-451 191 0
451 -222 -191 0
-452 261 0
-452 298 0
452 -261 -298 0
-454 61 0
-454 501 0
454 -61 -501 0
-455 332 0
-455 346 0
455 -332 -346 0
-457 175 0
-457 188 0
457 -175 -188 0
-502 346 0
-502 220 0
502 -346 -220 0
-459 502 0
-459 289 0
459 -502 -289 0
-463 220 0
-463 191 0
463 -220 -191 0
-464 331 0
-464 347 0
464 -331 -347 0
-466 300 0
-466 349 0
466 -300 -349 0
-467 349 0
-467 57 0
467 -349 -57 0
-469 187 0
-469 188 0
469 -187 -188 0
-470 379 0
-470 393 0
470 -379 -393 0
-503 174 0
-503 393 0
503 -174 -393 0
-471 503 0
-471 224 0
471 -503 -224 0
-504 393 0
-504 224 0
504 -393 -224 0
-473 504 0
-473 292 0
473 -504 -292 0
-476 61 0
-476 389 0
476 -61 -389 0
-478 224 0
-478 191 0
478 -224 -191 0
-480 378 0
-480 394 0
480 -378 -394 0
-482 396 0
-482 349 0
482 -396 -349 0
-484 396 0
-484 300 0
484 -396 -300 0
-486 170 0
-486 396 0
486 -170 -396 0
-505 172 0
-505 292 0
505 -172 -292 0
-487 505 0
-487 222 0
487 -505 -222 0
-506 173 0
-506 346 0
506 -173 -346 0
-488 506 0
-488 220 0
488 -506 -220 0
-489 349 0
-489 289 0
489 -349 -289 0
490 -190 0
490 -477 0
-490 190 477 0
